p tdp 46 88
2 8
26 40
2 7
5 18
23 35
19 23
10 27
22 43
15 16
20 31
3 28
15 37
1 46
28 33
36 42
11 46
4 14
25 41
9 10
12 13
5 17
17 28
12 24
29 41
6 13
42 44
7 45
12 38
14 30
22 35
14 24
32 43
31 32
2 24
20 33
15 40
34 42
1 27
29 42
15 21
2 43
39 42
22 34
9 21
16 32
16 28
11 33
12 34
14 19
15 38
31 34
18 28
35 40
41 43
19 35
6 46
15 33
12 21
1 38
24 38
16 27
3 7
8 26
34 46
34 36
33 36
4 39
2 40
4 22
26 37
34 37
14 32
3 26
14 17
20 32
33 45
32 33
24 34
1 11
8 44
1 30
5 16
3 41
13 43
26 38
5 29
22 44
13 44
